0 100 2525 51 100 22 42 83 75 44 87 30 30 59 88 8 15 23 85 21 4 14 31 42 42 57 83 32 75 40 20 37 20 36 41 63 71 15 7 9 96 20 84 19 27 50 41 71 97 28 53 38 21 53 35 72 72 93 59 70 7 29 37 13 90 1 61 67 19 39 69 11 1 7 80 43 97 100 52 16 52 27 75 56 19 68 78 26 48 66 90 89 49 90 49 60 87 81 18 77 18 45 69 96 69 78 14 91 36 24 81 73 22 25 40 82 63 75 56 2 100 65 88 31 4 18 60 69 6 92 53 94 7 79 1 49 53 61 78 33 8 12 57 62 51 74 58 88 50 5 99 64 22 98 42 3 11 54 94 95 1 47 37 6 83 76 38 84 94 46 46 34 81 97 92 99 28 48 92 35 80 55 91 86 23 85 25 41 21 17 96 10 52 58 20 52 14 4 94 87 46 80 89
